presolving:
(round 1, fast)       32442 del vars, 32443 del conss, 0 add conss, 63000 chg bounds, 0 chg sides, 0 chg coeffs, 0 upgd conss, 0 impls, 16287 clqs
   (1.2s) running MILP presolver
   (1.5s) MILP presolver (2 rounds): 0 aggregations, 0 fixings, 0 bound changes
(round 2, medium)     32442 del vars, 50274 del conss, 17079 add conss, 63000 chg bounds, 0 chg sides, 0 chg coeffs, 0 upgd conss, 0 impls, 16287 clqs
(round 3, exhaustive) 32442 del vars, 50274 del conss, 17079 add conss, 63000 chg bounds, 0 chg sides, 0 chg coeffs, 16287 upgd conss, 0 impls, 16287 clqs
   (3.0s) probing: 51/314 (16.2%) - 0 fixings, 0 aggregations, 0 implications, 0 bound changes
   (3.0s) probing aborted: 50/50 successive totally useless probings
   (3.2s) symmetry computation started: requiring (bin +, int -, cont +), (fixed: bin -, int +, cont -)
   (3.3s) no symmetry present
presolving (4 rounds: 4 fast, 3 medium, 2 exhaustive):
 63942 deleted vars, 51066 deleted constraints, 17079 added constraints, 63000 tightened bounds, 0 added holes, 0 changed sides, 0 changed coefficients
 0 implications, 16287 cliques
presolved problem has 314 variables (314 bin, 0 int, 0 impl, 0 cont) and 16287 constraints
  16287 constraints of type <setppc>
Presolving Time: 3.68

 time | node  | left  |LP iter|LP it/n|mem/heur|mdpt |vars |cons |rows |cuts |sepa|confs|strbr|  dualbound   | primalbound  |  gap   | compl. 
t 4.2s|     1 |     0 |     0 |     - | trivial|   0 | 314 |  16k|   0 |   0 |  0 |   0 |   0 | 4.274513e+05 | 4.271690e+05 |   0.07%| unknown
p 4.2s|     1 |     0 |     0 |     - |  clique|   0 | 314 |  16k|  16k|   0 |  0 |   0 |   0 | 4.274513e+05 | 4.271821e+05 |   0.06%| unknown
p 4.2s|     1 |     0 |     0 |     - |   locks|   0 | 314 |  16k|  16k|   0 |  0 |   0 |   0 | 4.274513e+05 | 4.272315e+05 |   0.05%| unknown
  4.4s|     1 |     0 |   492 |     - |   348M |   0 | 314 |  16k|  16k|   0 |  0 |   0 |   0 | 4.272457e+05 | 4.272315e+05 |   0.00%| unknown
  6.3s|     1 |     0 |   530 |     - |   350M |   0 | 314 |  16k|  16k|   2 |  1 |   0 |   0 | 4.272455e+05 | 4.272315e+05 |   0.00%| unknown
  8.5s|     1 |     0 |   570 |     - |   352M |   0 | 314 |  16k|  16k|   4 |  2 |   0 |   0 | 4.272454e+05 | 4.272315e+05 |   0.00%| unknown
 10.6s|     1 |     0 |   686 |     - |   353M |   0 | 314 |  16k|  16k|  10 |  3 |   0 |   0 | 4.272451e+05 | 4.272315e+05 |   0.00%| unknown
 12.7s|     1 |     0 |   846 |     - |   355M |   0 | 314 |  16k|  16k|  17 |  4 |   0 |   0 | 4.272449e+05 | 4.272315e+05 |   0.00%| unknown
 15.0s|     1 |     0 |   938 |     - |   357M |   0 | 314 |  16k|  16k|  21 |  5 |   0 |   0 | 4.272447e+05 | 4.272315e+05 |   0.00%| unknown
 18.0s|     1 |     0 |  1137 |     - |   358M |   0 | 314 |  16k|  16k|  25 |  6 |   0 |   0 | 4.272441e+05 | 4.272315e+05 |   0.00%| unknown
 21.0s|     1 |     0 |  1291 |     - |   360M |   0 | 314 |  16k|  16k|  29 |  7 |   0 |   0 | 4.272436e+05 | 4.272315e+05 |   0.00%| unknown
 23.9s|     1 |     0 |  1390 |     - |   362M |   0 | 314 |  16k|  16k|  33 |  8 |   0 |   0 | 4.272433e+05 | 4.272315e+05 |   0.00%| unknown
 27.2s|     1 |     0 |  1512 |     - |   365M |   0 | 314 |  16k|  16k|  37 |  9 |   0 |   0 | 4.272430e+05 | 4.272315e+05 |   0.00%| unknown
 30.7s|     1 |     0 |  1731 |     - |   368M |   0 | 314 |  16k|  16k|  42 | 10 |   0 |   0 | 4.272423e+05 | 4.272315e+05 |   0.00%| unknown
 30.9s|     1 |     0 |  2046 |     - |   369M |   0 | 314 |  16k|  16k|  59 | 11 |   0 |   0 | 4.272413e+05 | 4.272315e+05 |   0.00%| unknown
 time | node  | left  |LP iter|LP it/n|mem/heur|mdpt |vars |cons |rows |cuts |sepa|confs|strbr|  dualbound   | primalbound  |  gap   | compl. 
 31.1s|     1 |     0 |  2181 |     - |   371M |   0 | 314 |  16k|  16k|  62 | 12 |   0 |   0 | 4.272408e+05 | 4.272315e+05 |   0.00%| unknown
 31.3s|     1 |     0 |  2592 |     - |   373M |   0 | 314 |  16k|  16k|  77 | 13 |   0 |   0 | 4.272392e+05 | 4.272315e+05 |   0.00%| unknown
 31.4s|     1 |     0 |  2709 |     - |   375M |   0 | 314 |  16k|  16k|  78 | 14 |   0 |   0 | 4.272390e+05 | 4.272315e+05 |   0.00%| unknown
 31.6s|     1 |     0 |  2924 |     - |   377M |   0 | 314 |  16k|  16k|  85 | 15 |   0 |   0 | 4.272383e+05 | 4.272315e+05 |   0.00%| unknown
 31.8s|     1 |     0 |  3174 |     - |   379M |   0 | 314 |  16k|  16k|  91 | 16 |   0 |   0 | 4.272377e+05 | 4.272315e+05 |   0.00%| unknown
 32.0s|     1 |     0 |  3420 |     - |   380M |   0 | 314 |  16k|  16k|  97 | 17 |   0 |   0 | 4.272372e+05 | 4.272315e+05 |   0.00%| unknown
 32.2s|     1 |     0 |  3683 |     - |   382M |   0 | 314 |  16k|  16k| 100 | 18 |   0 |   0 | 4.272366e+05 | 4.272315e+05 |   0.00%| unknown
 32.4s|     1 |     0 |  3904 |     - |   384M |   0 | 314 |  16k|  16k| 103 | 19 |   0 |   0 | 4.272361e+05 | 4.272315e+05 |   0.00%| unknown
 32.4s|     1 |     0 |  3904 |     - |   384M |   0 | 314 |  16k|  16k| 103 | 19 |   0 |   0 | 4.272361e+05 | 4.272315e+05 |   0.00%| unknown
 32.7s|     1 |     0 |  4121 |     - |   386M |   0 | 314 |  16k|  16k| 108 | 20 |   0 |   0 | 4.272355e+05 | 4.272315e+05 |   0.00%| unknown
 32.9s|     1 |     0 |  4428 |     - |   386M |   0 | 314 |  16k|  16k| 111 | 21 |   0 |   0 | 4.272345e+05 | 4.272315e+05 |   0.00%| unknown
 33.0s|     1 |     0 |  4428 |     - |   386M |   0 | 314 |  16k|  16k| 111 | 21 |   0 |   0 | 4.272345e+05 | 4.272315e+05 |   0.00%| unknown
 33.2s|     1 |     0 |  4718 |     - |   386M |   0 | 314 |  15k|  16k| 115 | 22 |   0 |   0 | 4.272339e+05 | 4.272315e+05 |   0.00%| unknown
 33.2s|     1 |     0 |  4718 |     - |   386M |   0 | 314 |  15k|  15k| 115 | 22 |   0 |   0 | 4.272339e+05 | 4.272315e+05 |   0.00%| unknown
 33.4s|     1 |     0 |  4936 |     - |   386M |   0 | 314 |  15k|  15k| 117 | 23 |   0 |   0 | 4.272336e+05 | 4.272315e+05 |   0.00%| unknown
 time | node  | left  |LP iter|LP it/n|mem/heur|mdpt |vars |cons |rows |cuts |sepa|confs|strbr|  dualbound   | primalbound  |  gap   | compl. 
 33.4s|     1 |     0 |  4936 |     - |   386M |   0 | 314 |  15k|  14k| 117 | 23 |   0 |   0 | 4.272336e+05 | 4.272315e+05 |   0.00%| unknown
 33.6s|     1 |     0 |  5224 |     - |   386M |   0 | 314 |  14k|  14k| 122 | 24 |   0 |   0 | 4.272330e+05 | 4.272315e+05 |   0.00%| unknown
 33.6s|     1 |     0 |  5224 |     - |   387M |   0 | 314 |  14k|  13k| 122 | 24 |   0 |   0 | 4.272330e+05 | 4.272315e+05 |   0.00%| unknown
 33.7s|     1 |     0 |  5430 |     - |   387M |   0 | 314 |  13k|  13k| 125 | 25 |   0 |   0 | 4.272328e+05 | 4.272315e+05 |   0.00%| unknown
 33.7s|     1 |     0 |  5430 |     - |   387M |   0 | 314 |  13k|  13k| 125 | 25 |   0 |   0 | 4.272328e+05 | 4.272315e+05 |   0.00%| unknown
 33.8s|     1 |     0 |  5630 |     - |   387M |   0 | 314 |  13k|  13k| 128 | 26 |   0 |   0 | 4.272325e+05 | 4.272315e+05 |   0.00%| unknown
 33.9s|     1 |     0 |  5630 |     - |   387M |   0 | 314 |  13k|  13k| 128 | 26 |   0 |   0 | 4.272325e+05 | 4.272315e+05 |   0.00%| unknown
 34.0s|     1 |     0 |  5919 |     - |   387M |   0 | 314 |  13k|  13k| 132 | 27 |   0 |   0 | 4.272322e+05 | 4.272315e+05 |   0.00%| unknown
 34.0s|     1 |     0 |  5919 |     - |   387M |   0 | 314 |  13k|  11k| 132 | 27 |   0 |   0 | 4.272322e+05 | 4.272315e+05 |   0.00%| unknown
 34.2s|     1 |     0 |  6176 |     - |   387M |   0 | 314 |  11k|  11k| 137 | 28 |   0 |   0 | 4.272318e+05 | 4.272315e+05 |   0.00%| unknown
 34.2s|     1 |     0 |  6176 |     - |   387M |   0 | 314 |  11k|8139 | 137 | 28 |   0 |   0 | 4.272318e+05 | 4.272315e+05 |   0.00%| unknown
 34.3s|     1 |     0 |  6324 |     - |   387M |   0 | 314 |8011 |8135 | 140 | 29 |   0 |   0 | 4.272317e+05 | 4.272315e+05 |   0.00%| unknown
 34.3s|     1 |     0 |  6324 |     - |   387M |   0 | 314 |8011 |6996 | 140 | 29 |   0 |   0 | 4.272317e+05 | 4.272315e+05 |   0.00%| unknown
 34.3s|     1 |     0 |  6432 |     - |   387M |   0 | 314 |6872 |6999 | 143 | 30 |   0 |   0 | 4.272315e+05 | 4.272315e+05 |   0.00%| unknown
 34.3s|     1 |     0 |  6432 |     - |   387M |   0 | 314 |6872 |6999 | 143 | 30 |   0 |   0 | 4.272315e+05 | 4.272315e+05 |   0.00%| unknown

SCIP Status        : problem is solved [optimal solution found]
Solving Time (sec) : 34.33
Solving Nodes      : 1
Primal Bound       : +4.27231529960320e+05 (33 solutions)
Dual Bound         : +4.27231529960320e+05
Gap                : 0.00 %
Solve Status: optimal
Solve Time: 34.37 seconds
